60
896
7
60
51
43
21
96
84
22
0 3
0 5
0 6
0 8
0 11
0 12
0 15
0 17
0 20
0 25
0 28
0 30
0 34
0 35
0 40
0 42
0 43
0 46
0 47
0 48
0 49
0 50
0 51
0 54
0 56
0 58
0 59
1 4
1 7
1 9
1 13
1 14
1 15
1 16
1 17
1 18
1 19
1 20
1 23
1 24
1 25
1 29
1 31
1 32
1 33
1 34
1 35
1 36
1 39
1 41
1 44
1 45
1 46
1 47
1 48
1 51
1 55
1 57
1 59
2 3
2 5
2 6
2 7
2 8
2 10
2 11
2 12
2 13
2 15
2 18
2 21
2 22
2 23
2 24
2 27
2 28
2 30
2 35
2 37
2 41
2 46
2 47
2 48
2 49
2 51
2 53
2 54
2 58
2 59
3 5
3 7
3 8
3 9
3 11
3 12
3 13
3 14
3 17
3 20
3 21
3 23
3 25
3 27
3 28
3 31
3 34
3 37
3 39
3 40
3 42
3 50
3 55
4 6
4 8
4 9
4 15
4 16
4 18
4 19
4 20
4 22
4 23
4 24
4 26
4 27
4 28
4 29
4 35
4 36
4 37
4 38
4 39
4 41
4 43
4 44
4 45
4 47
4 48
4 50
4 51
4 52
4 53
4 54
4 56
4 58
5 7
5 10
5 12
5 17
5 18
5 19
5 20
5 21
5 22
5 23
5 24
5 25
5 26
5 27
5 28
5 30
5 32
5 34
5 35
5 36
5 38
5 39
5 40
5 43
5 46
5 48
5 50
5 52
5 53
5 57
5 58
5 59
6 7
6 8
6 10
6 11
6 14
6 19
6 20
6 21
6 24
6 25
6 26
6 28
6 29
6 32
6 33
6 36
6 37
6 39
6 40
6 43
6 44
6 45
6 46
6 49
6 51
6 53
6 54
6 55
6 56
6 57
6 59
7 9
7 11
7 14
7 15
7 16
7 18
7 24
7 25
7 28
7 32
7 33
7 35
7 37
7 38
7 44
7 45
7 47
7 48
7 50
7 51
7 55
7 57
7 58
8 12
8 17
8 18
8 19
8 20
8 21
8 22
8 24
8 27
8 29
8 32
8 35
8 37
8 39
8 40
8 42
8 44
8 45
8 46
8 47
8 50
8 54
8 55
8 56
8 57
8 58
8 59
9 12
9 15
9 17
9 21
9 22
9 25
9 26
9 28
9 30
9 37
9 38
9 39
9 41
9 44
9 45
9 46
9 47
9 48
9 50
9 51
9 53
9 55
9 57
9 59
10 12
10 14
10 17
10 18
10 19
10 21
10 22
10 23
10 24
10 25
10 28
10 29
10 30
10 31
10 32
10 35
10 39
10 40
10 41
10 42
10 43
10 44
10 46
10 48
10 50
10 51
10 52
10 53
10 54
10 57
10 58
11 12
11 17
11 18
11 19
11 20
11 21
11 22
11 23
11 24
11 28
11 30
11 31
11 32
11 33
11 35
11 37
11 39
11 40
11 41
11 42
11 43
11 48
11 49
11 50
11 51
11 52
11 53
11 54
11 55
11 56
11 57
11 59
12 15
12 16
12 17
12 19
12 20
12 22
12 23
12 25
12 26
12 27
12 31
12 34
12 36
12 38
12 42
12 47
12 50
12 52
12 56
12 57
12 58
13 14
13 15
13 16
13 17
13 19
13 20
13 21
13 22
13 23
13 25
13 26
13 27
13 28
13 29
13 30
13 31
13 34
13 35
13 37
13 38
13 39
13 40
13 41
13 42
13 44
13 46
13 47
13 49
13 53
13 55
13 56
13 57
14 16
14 21
14 23
14 24
14 26
14 30
14 33
14 35
14 37
14 39
14 41
14 43
14 45
14 48
14 52
14 57
14 58
15 17
15 19
15 20
15 21
15 22
15 28
15 30
15 31
15 33
15 37
15 38
15 39
15 43
15 44
15 45
15 46
15 48
15 49
15 50
15 53
15 54
15 55
16 19
16 22
16 23
16 25
16 28
16 30
16 31
16 36
16 40
16 44
16 45
16 47
16 51
16 54
16 56
16 57
16 58
17 20
17 21
17 22
17 26
17 27
17 29
17 30
17 32
17 33
17 34
17 37
17 38
17 39
17 40
17 41
17 46
17 49
17 50
17 51
17 54
17 56
18 21
18 22
18 24
18 25
18 27
18 29
18 31
18 32
18 36
18 37
18 39
18 42
18 47
18 48
18 50
18 55
18 56
18 57
19 27
19 28
19 29
19 32
19 34
19 35
19 36
19 37
19 38
19 40
19 41
19 42
19 45
19 47
19 48
19 51
19 54
19 55
20 22
20 23
20 25
20 26
20 28
20 29
20 30
20 31
20 32
20 33
20 34
20 35
20 38
20 39
20 41
20 42
20 44
20 48
20 50
20 52
20 53
20 54
20 57
20 58
20 59
21 22
21 28
21 29
21 31
21 33
21 36
21 42
21 43
21 45
21 46
21 48
21 50
21 51
21 53
21 56
21 59
22 23
22 24
22 25
22 32
22 33
22 35
22 36
22 38
22 39
22 40
22 42
22 45
22 49
22 50
22 52
22 53
22 57
22 59
23 24
23 27
23 28
23 30
23 32
23 33
23 34
23 35
23 39
23 40
23 42
23 43
23 45
23 46
23 47
23 49
23 54
23 55
23 56
23 57
23 58
23 59
24 25
24 27
24 28
24 29
24 31
24 32
24 33
24 37
24 42
24 43
24 44
24 45
24 46
24 48
24 49
24 50
24 51
24 52
24 58
24 59
25 27
25 32
25 40
25 41
25 44
25 45
25 50
25 51
25 53
25 54
25 55
25 56
25 57
25 58
26 27
26 28
26 29
26 31
26 33
26 37
26 38
26 40
26 41
26 42
26 43
26 44
26 49
26 50
26 51
26 52
26 54
26 55
26 56
27 29
27 30
27 33
27 34
27 35
27 36
27 38
27 40
27 42
27 43
27 44
27 45
27 47
27 48
27 52
27 53
27 56
27 58
28 33
28 36
28 38
28 41
28 44
28 46
28 48
28 56
29 30
29 32
29 33
29 35
29 36
29 37
29 42
29 43
29 44
29 45
29 46
29 47
29 52
29 55
29 58
29 59
30 31
30 34
30 36
30 37
30 38
30 39
30 40
30 42
30 43
30 47
30 50
30 51
30 52
30 53
30 55
30 56
30 57
31 32
31 34
31 35
31 40
31 42
31 44
31 48
31 51
31 52
31 54
31 55
31 58
32 34
32 35
32 37
32 44
32 46
32 48
32 50
32 51
32 55
32 57
32 58
33 35
33 36
33 37
33 38
33 39
33 40
33 43
33 45
33 46
33 47
33 49
33 50
33 52
33 55
33 56
33 58
34 35
34 36
34 37
34 38
34 40
34 41
34 48
34 49
34 50
34 52
34 56
35 36
35 38
35 39
35 41
35 44
35 46
35 48
35 49
35 50
35 54
35 56
35 57
35 59
36 42
36 43
36 44
36 45
36 46
36 47
36 49
36 53
36 54
36 57
36 58
37 40
37 44
37 46
37 48
37 50
37 51
37 54
37 55
37 56
38 42
38 44
38 45
38 47
38 48
38 49
38 50
38 52
38 53
38 57
38 58
38 59
39 40
39 41
39 42
39 43
39 47
39 48
39 50
39 53
40 41
40 44
40 45
40 46
40 47
40 49
40 50
40 54
40 56
40 57
41 44
41 47
41 51
41 52
41 54
41 55
41 56
42 45
42 49
42 51
42 52
42 54
42 56
42 59
43 44
43 48
43 50
43 59
44 45
44 47
44 48
44 52
44 53
44 56
44 58
45 46
45 49
45 50
45 51
45 53
45 55
45 57
45 58
46 47
46 50
46 51
46 53
46 54
46 57
47 48
47 50
47 51
47 52
47 56
47 58
47 59
48 51
48 54
48 55
48 56
48 57
48 58
48 59
49 50
49 51
49 52
49 53
49 55
49 57
49 58
50 51
50 52
50 56
50 58
51 52
51 56
51 57
51 58
52 53
52 57
53 54
53 56
54 55
55 56
55 57
56 57
56 58
56 59
57 58
48 59 28 50 39 21 40 22 11
37 32 56 31 42 3 16 9 13
7 51 4 15 10 14 55 8 26
27 36 6 44 19 34 52 23 57
45 58 5 24 54 29 53 17 12
1 38 25 49 0 46 33 18 20
2 47 30 41 35 43
